Problem:    
Rows:       105
Columns:    45 (34 integer, 34 binary)
Non-zeros:  302
Status:     INTEGER OPTIMAL
Objective:  value = 46.02438 (MINimum)

   No.   Row name        Activity     Lower bound   Upper bound
------ ------------    ------------- ------------- -------------
     1 r.5                   46.0244             0               
     2 r.6                  -28.0572      -406.094               
     3 r.7                   546.024             0               
     4 r.8                  -460.109      -469.814               
     5 r.9                   46.0244             0               
     6 r.10                 -11.2558      -483.199               
     7 r.11                  546.024             0               
     8 r.12                 -453.976      -493.867               
     9 r.13                  46.0244             0               
    10 r.14                  3.49504      -485.249               
    11 r.15                  546.024             0               
    12 r.16                 -490.294       -496.39               
    13 r.17                  546.024             0               
    14 r.18                 -453.976      -457.471               
    15 r.19                  46.0244             0               
    16 r.20                  6.09563      -485.886               
    17 r.21                  546.024             0               
    18 r.22                 -499.505      -499.505               
    19 r.23                  46.0244             0               
    20 r.24                  0.49504      -498.275               
    21 r.25                        1             1             = 
    22 r.26                        1             1             = 
    23 r.27                        1             1             = 
    24 r.28                        1             1             = 
    25 r.29                        1             1             = 
    26 r.30                  16.8014       16.8014               
    27 r.31                 -16.8014      -406.094               
    28 r.32                    6.133         6.133               
    29 r.33                   -6.133      -469.814               
    30 r.34                  31.5522       14.7508               
    31 r.35                 -31.5522      -406.094               
    32 r.36                  469.814        3.6099               
    33 r.37                 -469.814      -469.814               
    34 r.38                  74.0816       42.5293               
    35 r.39                 -74.0816      -406.094               
    36 r.40                  466.204        14.114               
    37 r.41                 -466.204      -469.814               
    38 r.42                 -28.5522      -403.094               
    39 r.43                 -460.604      -466.814               
    40 r.44                 -28.5522      -403.094               
    41 r.45                 -460.604      -466.814               
    42 r.46                  483.199       93.9061               
    43 r.47                 -483.199      -483.199               
    44 r.48                  493.867       30.1858               
    45 r.49                 -493.867      -493.867               
    46 r.50                  14.7508       14.7508               
    47 r.51                 -14.7508      -483.199               
    48 r.52                  463.681        3.6099               
    49 r.53                 -463.681      -493.867               
    50 r.54                  57.2802       42.5293               
    51 r.55                 -57.2802      -483.199               
    52 r.56                  460.071        14.114               
    53 r.57                 -460.071      -493.867               
    54 r.58                 -11.7508      -480.199               
    55 r.59                 -454.471      -490.867               
    56 r.60                 -11.7508      -480.199               
    57 r.61                 -454.471      -490.867               
    58 r.62                  468.448       93.9061               
    59 r.63                 -468.448      -485.249               
    60 r.64                  30.1859       30.1858               
    61 r.65                 -30.1859       -496.39               
    62 r.66                  485.249       16.8014               
    63 r.67                 -485.249      -485.249               
    64 r.68                  36.3188         6.133               
    65 r.69                 -36.3188       -496.39               
    66 r.70                  42.5293       42.5293               
    67 r.71                 -42.5293      -485.249               
    68 r.72                   496.39        14.114               
    69 r.73                  -496.39       -496.39               
    70 r.74                        3      -482.249               
    71 r.75                  -490.79       -493.39               
    72 r.76                        3      -482.249               
    73 r.77                  -490.79       -493.39               
    74 r.78                  425.918       93.9061               
    75 r.79                 -425.918      -457.471               
    76 r.80                  33.7958       30.1858               
    77 r.81                 -33.7958      -485.886               
    78 r.82                   442.72       16.8014               
    79 r.83                  -442.72      -457.471               
    80 r.84                  39.9287         6.133               
    81 r.85                 -39.9287      -485.886               
    82 r.86                  457.471       14.7508               
    83 r.87                 -457.471      -457.471               
    84 r.88                   3.6099        3.6099               
    85 r.89                  -3.6099      -485.886               
    86 r.90                 -454.471      -454.471               
    87 r.91                  5.60059      -482.886               
    88 r.92                 -454.471      -454.471               
    89 r.93                  5.60059      -482.886               
    90 r.94                 -28.5522      -403.094               
    91 r.95                 -460.604      -466.814               
    92 r.96                 -28.5522      -403.094               
    93 r.97                 -460.604      -466.814               
    94 r.98                 -11.7508      -480.199               
    95 r.99                 -454.471      -490.867               
    96 r.100                -11.7508      -480.199               
    97 r.101                -454.471      -490.867               
    98 r.102                       3      -482.249               
    99 r.103                 -490.79       -493.39               
   100 r.104                       3      -482.249               
   101 r.105                 -490.79       -493.39               
   102 r.106                -454.471      -454.471               
   103 r.107                 5.60059      -482.886               
   104 r.108                -454.471      -454.471               
   105 r.109                 5.60059      -482.886               

   No. Column name       Activity     Lower bound   Upper bound
------ ------------    ------------- ------------- -------------
     1 tt                    46.0244             0               
     2 s_1_1        *              0             0             1 
     3 t_1_1                 74.0816             0               
     4 s_2_1        *              1             0             1 
     5 t_2_1                   6.133             0               
     6 s_1_2        *              0             0             1 
     7 t_1_2                 57.2802             0               
     8 s_2_2        *              1             0             1 
     9 t_2_2                       0             0               
    10 s_1_3        *              0             0             1 
    11 t_1_3                 42.5293             0               
    12 s_2_3        *              1             0             1 
    13 t_2_3                 36.3188             0               
    14 s_1_4        *              1             0             1 
    15 t_1_4                       0             0               
    16 s_2_4        *              0             0             1 
    17 t_2_4                 39.9287             0               
    18 s_1_5        *              1             0             1 
    19 t_1_5                 45.5293             0               
    20 s_2_5        *              0             0             1 
    21 t_2_5                 45.5293             0               
    22 u_1_1_2      *              0             0             1 
    23 u_2_1_2      *              0             0             1 
    24 u_1_1_3      *              0             0             1 
    25 u_2_1_3      *              1             0             1 
    26 u_1_1_4      *              0             0             1 
    27 u_2_1_4      *              1             0             1 
    28 u_1_2_1      *              1             0             1 
    29 u_2_2_1      *              1             0             1 
    30 u_1_2_3      *              0             0             1 
    31 u_2_2_3      *              1             0             1 
    32 u_1_2_4      *              0             0             1 
    33 u_2_2_4      *              1             0             1 
    34 u_1_3_1      *              1             0             1 
    35 u_2_3_1      *              0             0             1 
    36 u_1_3_2      *              1             0             1 
    37 u_2_3_2      *              0             0             1 
    38 u_1_3_4      *              0             0             1 
    39 u_2_3_4      *              1             0             1 
    40 u_1_4_1      *              1             0             1 
    41 u_2_4_1      *              0             0             1 
    42 u_1_4_2      *              1             0             1 
    43 u_2_4_2      *              0             0             1 
    44 u_1_4_3      *              1             0             1 
    45 u_2_4_3      *              0             0             1 

Integer feasibility conditions:

KKT.PE: max.abs.err = 0.00e+00 on row 0
        max.rel.err = 0.00e+00 on row 0
        High quality

KKT.PB: max.abs.err = 1.87e-14 on row 28
        max.rel.err = 2.61e-15 on row 28
        High quality

End of output
